--- Job thunder.gms Start 07/15/20 17:26:09 31.2.0 r8ba6aed DEX-DEG x86 64bit/Mac OS X
--- Applying:
    /Applications/GAMS31.2/GAMS Terminal.app/Contents/MacOS/gmsprmun.txt
    /Users/ferris/Library/Preferences/GAMS/gamsconfig.yaml
--- GAMS Parameters defined
    Input /Users/ferris/Projects/GAMS-MIRO/Thundercloud/thunder.gms
    PageSize 0
    ScrDir /Users/ferris/Projects/GAMS-MIRO/Thundercloud/225a/
    SysDir /Applications/GAMS31.2/GAMS Terminal.app/Contents/MacOS/
    LogOption 3
    ErrMsg 1
    ErrorLog 99
    IDE 1
    LstTitleLeftAligned 1
    IDCGenerateJSON conf_thunder/thunder_io.json
    IDCGenerateGDX data_thunder/default.gdx
GAMS 31.2.0   Copyright (C) 1987-2020 GAMS Development. All rights reserved
Licensee: Michael C. Ferris                              S200127/0001AN-GEN
          University of Wisconsin-Madison, Computer Sciences Dept.DCE000472
          /Users/ferris/Library/Application Support/GAMS/gamslice.txt
          Evaluation license: Not for commercial or production use
--- Starting compilation
--- thunder.gms(191) 3 Mb
--- thunder.gms(155) 4 Mb
--- Generating LP model airplane
--- thunder.gms(173) 5 Mb
---   1,281 rows  2,848 columns  8,055 non-zeroes
--- Executing CPLEX: elapsed 0:00:03.036
IBM ILOG CPLEX   31.2.0 r8ba6aed Released Jun 19, 2020 DEG x86 64bit/Mac OS X 
--- GAMS/Cplex licensed for continuous and discrete problems.
Cplex 12.10.0.0
Reading data...
Starting Cplex...
Space for names approximately 0.09 Mb
Use option 'names no' to turn use of names off
Version identifier: 12.10.0.0 | 2019-11-26 | 843d4de
CPXPARAM_Advance                                 0
CPXPARAM_Threads                                 1
CPXPARAM_Parallel                                1
CPXPARAM_Simplex_Limits_Iterations               2000000000
CPXPARAM_TimeLimit                               1000
CPXPARAM_Tune_TimeLimit                          200
Tried aggregator 1 time.
LP Presolve eliminated 485 rows and 907 columns.
Aggregator did 42 substitutions.
Reduced LP has 754 rows, 1899 columns, and 3787 nonzeros.
Presolve time = 0.00 sec. (3.92 ticks)
Initializing dual steep norms . . .
Iteration log . . .
Iteration:     1   Dual objective     =             1.290000
Iteration:   100   Dual objective     =            86.700000
Iteration:   185   Dual objective     =           121.780000
LP status(1): optimal
Cplex Time: 0.01sec (det. 7.46 ticks)
Optimal solution found.
Objective :         144.820000
--- Restarting execution
--- thunder.gms(173) 3 Mb
--- Reading solution for model airplane
--- Executing after solve: elapsed 0:00:03.368
--- thunder.gms(191) 4 Mb
--- GDX File /Users/ferris/Projects/GAMS-MIRO/Thundercloud/data_thunder/default.gdx
*** Status: Normal completion
--- Job thunder.gms Stop 07/15/20 17:26:12 elapsed 0:00:03.382
========================
========================Warning in eval(ei, envir) :
  The alias of symbol: 'xcoordcloud' was selected to be overwritten. However, this symbol could not be found.
Warning in eval(ei, envir) :
  The alias of symbol: 'lowcloud' was selected to be overwritten. However, this symbol could not be found.
Warning in eval(ei, envir) :
  The alias of symbol: 'highcloud' was selected to be overwritten. However, this symbol could not be found.
Warning in eval(ei, envir) :
  The alias of symbol: 'flowoutput' was selected to be overwritten. However, this symbol could not be found.
Warning in eval(ei, envir) :
  The alias of symbol: 'minheight' was selected to be overwritten. However, this symbol could not be found.
TRACE [2020-07-15 17:26:14] Logging facility initialised.
DEBUG [2020-07-15 17:26:15] Database connection established.
DEBUG [2020-07-15 17:26:15] Access Control initialised.
INFO [2020-07-15 17:26:15] New data: 'default.gdx' is being stored in the database. Please wait a until the import is finished.
DEBUG [2020-07-15 17:26:15] Db: Data was imported from table: '_sys_metadata_thunder' (Db.importDataset).
DEBUG [2020-07-15 17:26:15] Db: 1385 rows in table: '_sys_metadata_thunder' were deleted. (Db.deleteRows)
DEBUG [2020-07-15 17:26:15] Db: Metadata (table: '_sys_metadata_thunder') was written to database. (Db.writeMetadata).
DEBUG [2020-07-15 17:26:15] Db: Metadata (table: '_sys_metadata_thunder') was added for scenario: 'default' (Scenario.writeMetadata).
DEBUG [2020-07-15 17:26:15] Db: Data was added to table: 'thunder_flowop' (Db.exportScenDataset).
DEBUG [2020-07-15 17:26:15] Db: Data was added to table: 'thunder__scalars_out' (Db.exportScenDataset).
DEBUG [2020-07-15 17:26:15] Db: Data was added to table: 'thunder_cloudsinfo' (Db.exportScenDataset).
DEBUG [2020-07-15 17:26:15] Db: Data was added to table: 'thunder_crcost' (Db.exportScenDataset).
DEBUG [2020-07-15 17:26:15] Db: Data was added to table: 'thunder_climbdis' (Db.exportScenDataset).
DEBUG [2020-07-15 17:26:15] Db: Data was added to table: 'thunder_upcost' (Db.exportScenDataset).
DEBUG [2020-07-15 17:26:15] Db: Data was added to table: 'thunder_downcost' (Db.exportScenDataset).
DEBUG [2020-07-15 17:26:15] Db: Data was added to table: 'thunder_offsetcr' (Db.exportScenDataset).
DEBUG [2020-07-15 17:26:15] Db: Data was added to table: 'thunder_descenddis' (Db.exportScenDataset).
DEBUG [2020-07-15 17:26:15] Db: Data was added to table: 'thunder__scalars' (Db.exportScenDataset).
DEBUG [2020-07-15 17:26:16] Db: Data was imported from table: '_sys_scenlocks_thunder' (Db.importDataset).
DEBUG [2020-07-15 17:26:16] Db: 1 rows in table: '_sys_scenlocks_thunder' were deleted. (Db.deleteRows)
DEBUG [2020-07-15 17:26:16] Db: ferris: Lock was added for scenario: '1' (Scenario.lock).
========================================================
DEBUG [2020-07-15 17:26:16] Scenario: '1' unlocked.
DEBUG [2020-07-15 17:26:16] Db: 1 rows in table: '_sys_scenlocks_thunder' were deleted. (Db.deleteRows)
2020-07-15 17:26:18.971 GAMS MIRO Helper (Renderer)[16196:6747724] CoreText note: Client requested name ".AppleSymbolsFB", it will get Times-Roman rather than the intended font. All system UI font access should be through proper APIs such as CTFontCreateUIFontForLanguage() or +[NSFont systemFontOfSize:].
2020-07-15 17:26:18.971 GAMS MIRO Helper (Renderer)[16196:6747724] CoreText note: Set a breakpoint on CTFontLogSystemFontNameRequest to debug.
2020-07-15 17:26:18.972 GAMS MIRO Helper (Renderer)[16196:6747724] CoreText note: Client requested name ".AppleSymbolsFB", it will get Times-Roman rather than the intended font. All system UI font access should be through proper APIs such as CTFontCreateUIFontForLanguage() or +[NSFont systemFontOfSize:].
2020-07-15 17:26:18.972 GAMS MIRO Helper (Renderer)[16196:6747724] CoreText note: Client requested name ".AppleSymbolsFB", it will get Times-Roman rather than the intended font. All system UI font access should be through proper APIs such as CTFontCreateUIFontForLanguage() or +[NSFont systemFontOfSize:].
2020-07-15 17:26:18.972 GAMS MIRO Helper (Renderer)[16196:6747724] CoreText note: Client requested name ".AppleSymbolsFB", it will get Times-Roman rather than the intended font. All system UI font access should be through proper APIs such as CTFontCreateUIFontForLanguage() or +[NSFont systemFontOfSize:].
2020-07-15 17:26:19.409 GAMS MIRO Helper (Renderer)[16196:6747724] CoreText note: Client requested name ".AppleSymbolsFB", it will get Times-Roman rather than the intended font. All system UI font access should be through proper APIs such as CTFontCreateUIFontForLanguage() or +[NSFont systemFontOfSize:].
2020-07-15 17:26:19.409 GAMS MIRO Helper (Renderer)[16196:6747724] CoreText note: Client requested name ".AppleSymbolsFB", it will get Times-Roman rather than the intended font. All system UI font access should be through proper APIs such as CTFontCreateUIFontForLanguage() or +[NSFont systemFontOfSize:].
2020-07-15 17:26:19.409 GAMS MIRO Helper (Renderer)[16196:6747724] CoreText note: Client requested name ".AppleSymbolsFB", it will get Times-Roman rather than the intended font. All system UI font access should be through proper APIs such as CTFontCreateUIFontForLanguage() or +[NSFont systemFontOfSize:].
2020-07-15 17:26:19.409 GAMS MIRO Helper (Renderer)[16196:6747724] CoreText note: Client requested name ".AppleSymbolsFB", it will get Times-Roman rather than the intended font. All system UI font access should be through proper APIs such as CTFontCreateUIFontForLanguage() or +[NSFont systemFontOfSize:].
INFO [2020-07-15 17:26:19] Session started (model: 'thunder', user: 'ferris', workdir: '/Users/ferris/Projects/GAMS-MIRO/Thundercloud').
DEBUG [2020-07-15 17:26:19] Working directory was created: '/Users/ferris/Projects/GAMS-MIRO/Thundercloud'.
DEBUG [2020-07-15 17:26:19] Db: Data was imported from table: '_sys_metadata_thunder' (Db.importDataset).
DEBUG [2020-07-15 17:26:20] Sidebar menu item: 'inputData' selected.
DEBUG [2020-07-15 17:26:20] Loading and rendering scenarios: '1'.
DEBUG [2020-07-15 17:26:20] Db: Data was imported from table: 'thunder_flowop' (Db.importDataset).
DEBUG [2020-07-15 17:26:20] Db: Data was imported from table: 'thunder__scalars_out' (Db.importDataset).
DEBUG [2020-07-15 17:26:20] Db: Data was imported from table: 'thunder_cloudsinfo' (Db.importDataset).
DEBUG [2020-07-15 17:26:20] Db: Data was imported from table: 'thunder_crcost' (Db.importDataset).
DEBUG [2020-07-15 17:26:20] Db: Data was imported from table: 'thunder_climbdis' (Db.importDataset).
DEBUG [2020-07-15 17:26:20] Db: Data was imported from table: 'thunder_upcost' (Db.importDataset).
DEBUG [2020-07-15 17:26:20] Db: Data was imported from table: 'thunder_downcost' (Db.importDataset).
DEBUG [2020-07-15 17:26:20] Db: Data was imported from table: 'thunder_offsetcr' (Db.importDataset).
DEBUG [2020-07-15 17:26:20] Db: Data was imported from table: 'thunder_descenddis' (Db.importDataset).
DEBUG [2020-07-15 17:26:20] Db: Data was imported from table: 'thunder__scalars' (Db.importDataset).
DEBUG [2020-07-15 17:26:20] Db: A table named: '_sys_scripts_thunder' does not exist in the database (Db.importDataset).
DEBUG [2020-07-15 17:26:20] Scenario: 'New Scenario' closed.
DEBUG [2020-07-15 17:26:20] Db: Data was imported from table: '_sys_metadata_thunder' (Db.importDataset).
DEBUG [2020-07-15 17:26:20] Db: Data was imported from table: '_sys_scenlocks_thunder' (Db.importDataset).
DEBUG [2020-07-15 17:26:20] Db: ferris: Lock was added for scenario: '1' (Scenario.lock).
DEBUG [2020-07-15 17:26:20] Dataset: cloudsinfo loaded successfully (mode: scen, overwrite: FALSE)
DEBUG [2020-07-15 17:26:20] Dataset: crcost loaded successfully (mode: scen, overwrite: FALSE)
DEBUG [2020-07-15 17:26:20] Dataset: climbdis loaded successfully (mode: scen, overwrite: FALSE)
DEBUG [2020-07-15 17:26:20] Dataset: upcost loaded successfully (mode: scen, overwrite: FALSE)
DEBUG [2020-07-15 17:26:20] Dataset: downcost loaded successfully (mode: scen, overwrite: FALSE)
DEBUG [2020-07-15 17:26:20] Dataset: _scalars loaded successfully (mode: scen, overwrite: FALSE)
DEBUG [2020-07-15 17:26:20] Dataset: offsetcr loaded successfully (mode: scen, overwrite: FALSE)
DEBUG [2020-07-15 17:26:20] Dataset: descenddis loaded successfully (mode: scen, overwrite: FALSE)
DEBUG [2020-07-15 17:26:21] Scenario: '1' was loaded into UI
DEBUG [2020-07-15 17:26:28] Solve button clicked (model: 'thunder').
TRACE [2020-07-15 17:26:28] Dataset: Information of thunderstorm saved in dataTmp.
TRACE [2020-07-15 17:26:28] Dataset: Cost to cruise saved in dataTmp.
TRACE [2020-07-15 17:26:28] Dataset: Nautical distance to climb 2k feet saved in dataTmp.
TRACE [2020-07-15 17:26:28] Dataset: Cost of going up 2k feet at upheight saved in dataTmp.
TRACE [2020-07-15 17:26:28] Dataset: Cost of going down 2k feet at downheight saved in dataTmp.
TRACE [2020-07-15 17:26:28] Dataset: Scalars saved in dataTmp.
TRACE [2020-07-15 17:26:28] Dataset: Decision made frequency saved in dataTmp.
TRACE [2020-07-15 17:26:28] Dataset: Nautical distance to descend 2k feet saved in dataTmp.
DEBUG [2020-07-15 17:26:28] Db: A table named: '_sys_attach_thunder' does not exist in the database (Db.importDataset).
DEBUG [2020-07-15 17:26:28] Sidebar menu item: 'gamsinter' selected.
DEBUG [2020-07-15 17:26:34] Db: A table named: '_sys_attach_thunder' does not exist in the database (Db.importDataset).
DEBUG [2020-07-15 17:26:34] Sidebar menu item: 'outputData' selected.
DEBUG [2020-07-15 17:26:36] Sidebar menu item: 'inputData' selected.
DEBUG [2020-07-15 17:26:38] Solve button clicked (model: 'thunder').
TRACE [2020-07-15 17:26:38] Dataset: Information of thunderstorm saved in dataTmp.
TRACE [2020-07-15 17:26:38] Dataset: Cost to cruise saved in dataTmp.
TRACE [2020-07-15 17:26:38] Dataset: Nautical distance to climb 2k feet saved in dataTmp.
TRACE [2020-07-15 17:26:38] Dataset: Cost of going up 2k feet at upheight saved in dataTmp.
TRACE [2020-07-15 17:26:38] Dataset: Cost of going down 2k feet at downheight saved in dataTmp.
TRACE [2020-07-15 17:26:38] Dataset: Scalars saved in dataTmp.
TRACE [2020-07-15 17:26:38] Dataset: Decision made frequency saved in dataTmp.
ERROR [2020-07-15 17:26:38] Dataset: 'Nautical distance to descend 2k feet' could not be loaded. Error message: 'identical(length(data), nchar(colTypes)) is not TRUE'.
DEBUG [2020-07-15 17:26:45] Sidebar menu item: 'outputData' selected.
